4
21
57
40	32
1	3	14	7	19	4	15	4	
2	1	22	3	
3	1	8	11	
4	3	6	4	7	5	11	7	
5	2	6	3	15	6	
6	3	19	3	5	7	12	7	
7	4	25	3	9	3	8	2	4	9	
8	4	16	7	17	4	7	10	25	3	
9	2	12	6	6	11	
10	3	26	2	5	7	13	3	
11	3	27	3	21	3	14	8	
12	1	18	3	
13	4	25	4	15	5	32	3	5	10	
14	4	17	4	12	6	6	7	20	3	
15	1	16	6	
16	2	7	3	28	4	
17	3	5	5	13	3	7	8	
18	2	14	5	8	6	
19	4	5	3	5	6	12	6	4	7	
20	3	8	6	5	12	27	4	
21	4	4	9	25	3	17	2	10	4	
